c 
c G(k,n,p) graph
c graph gen seed     : 913
c number of vertices : 60
c max number of edges: 900
c number of classes  : 2
c edge density       : 0.300000
c edge probability   : 0.600000
c data structure     : dense
c
c           Graph Stats
c number of vertices  : 60
c nonisolated vertices: 60
c number of edges     : 523
c edge density        : 0.295480
c max degree          : 22
c avg degree          : 17.43
c min degree          : 11
p col 60 523
e 1 2
e 1 14
e 1 20
e 1 23
e 1 25
e 1 26
e 1 31
e 1 38
e 1 42
e 1 43
e 1 48
e 1 50
e 1 52
e 1 54
e 1 59
e 2 5
e 2 6
e 2 10
e 2 15
e 2 16
e 2 27
e 2 29
e 2 32
e 2 33
e 2 35
e 2 37
e 2 41
e 2 45
e 2 51
e 2 55
e 2 58
e 2 60
e 3 9
e 3 16
e 3 18
e 3 28
e 3 29
e 3 33
e 3 34
e 3 35
e 3 36
e 3 37
e 3 45
e 3 51
e 3 53
e 3 58
e 4 7
e 4 8
e 4 14
e 4 17
e 4 19
e 4 20
e 4 23
e 4 24
e 4 25
e 4 26
e 4 30
e 4 31
e 4 40
e 4 42
e 4 43
e 4 46
e 4 49
e 4 52
e 4 54
e 4 56
e 5 7
e 5 8
e 5 14
e 5 17
e 5 19
e 5 20
e 5 22
e 5 23
e 5 24
e 5 25
e 5 26
e 5 40
e 5 42
e 5 43
e 5 46
e 5 49
e 5 50
e 5 54
e 6 7
e 6 8
e 6 12
e 6 17
e 6 19
e 6 22
e 6 23
e 6 25
e 6 26
e 6 31
e 6 38
e 6 44
e 6 49
e 6 52
e 6 54
e 6 56
e 6 57
e 6 59
e 7 9
e 7 10
e 7 13
e 7 15
e 7 18
e 7 21
e 7 33
e 7 34
e 7 35
e 7 36
e 7 37
e 7 39
e 7 41
e 7 45
e 7 53
e 7 55
e 7 58
e 8 9
e 8 11
e 8 13
e 8 29
e 8 32
e 8 34
e 8 36
e 8 37
e 8 39
e 8 51
e 8 53
e 8 58
e 9 17
e 9 19
e 9 22
e 9 24
e 9 25
e 9 26
e 9 38
e 9 40
e 9 43
e 9 44
e 9 46
e 9 47
e 9 49
e 9 59
e 10 12
e 10 14
e 10 17
e 10 20
e 10 22
e 10 23
e 10 26
e 10 30
e 10 38
e 10 44
e 10 46
e 10 48
e 10 50
e 10 54
e 11 14
e 11 17
e 11 19
e 11 20
e 11 22
e 11 23
e 11 24
e 11 30
e 11 31
e 11 40
e 11 43
e 11 46
e 11 48
e 11 49
e 11 52
e 11 54
e 11 57
e 12 16
e 12 27
e 12 29
e 12 33
e 12 34
e 12 35
e 12 39
e 12 41
e 12 45
e 12 53
e 12 60
e 13 17
e 13 23
e 13 26
e 13 30
e 13 38
e 13 40
e 13 42
e 13 43
e 13 44
e 13 46
e 13 47
e 13 48
e 13 50
e 14 15
e 14 21
e 14 27
e 14 28
e 14 29
e 14 33
e 14 34
e 14 36
e 14 37
e 14 39
e 14 41
e 14 45
e 14 51
e 14 53
e 14 55
e 14 58
e 15 20
e 15 22
e 15 24
e 15 25
e 15 26
e 15 30
e 15 31
e 15 43
e 15 47
e 15 49
e 15 50
e 15 52
e 15 56
e 16 17
e 16 19
e 16 20
e 16 23
e 16 24
e 16 25
e 16 26
e 16 30
e 16 40
e 16 42
e 16 44
e 16 47
e 16 48
e 16 49
e 16 52
e 16 54
e 16 56
e 16 59
e 17 29
e 17 33
e 17 34
e 17 36
e 17 41
e 17 53
e 17 55
e 17 58
e 17 60
e 18 19
e 18 30
e 18 31
e 18 42
e 18 44
e 18 46
e 18 47
e 18 50
e 18 52
e 18 54
e 18 56
e 19 21
e 19 27
e 19 28
e 19 29
e 19 34
e 19 35
e 19 37
e 19 39
e 19 41
e 19 53
e 19 55
e 19 58
e 20 21
e 20 29
e 20 32
e 20 34
e 20 35
e 20 36
e 20 37
e 20 39
e 20 45
e 20 53
e 20 55
e 20 60
e 21 22
e 21 23
e 21 25
e 21 26
e 21 30
e 21 31
e 21 38
e 21 43
e 21 44
e 21 46
e 21 47
e 21 48
e 21 52
e 21 54
e 21 59
e 22 28
e 22 29
e 22 32
e 22 33
e 22 34
e 22 35
e 22 37
e 22 39
e 22 41
e 22 55
e 22 60
e 23 28
e 23 29
e 23 32
e 23 33
e 23 34
e 23 37
e 23 39
e 23 45
e 23 51
e 23 53
e 23 55
e 23 58
e 24 27
e 24 33
e 24 34
e 24 35
e 24 36
e 24 41
e 24 51
e 24 55
e 24 58
e 24 60
e 25 28
e 25 29
e 25 32
e 25 34
e 25 36
e 25 37
e 25 39
e 25 41
e 25 51
e 25 58
e 26 27
e 26 28
e 26 29
e 26 32
e 26 35
e 26 37
e 26 45
e 26 51
e 26 53
e 26 60
e 27 30
e 27 40
e 27 42
e 27 44
e 27 47
e 27 49
e 27 50
e 27 54
e 27 56
e 28 30
e 28 31
e 28 38
e 28 40
e 28 43
e 28 48
e 28 50
e 28 52
e 28 56
e 29 30
e 29 40
e 29 43
e 29 46
e 29 47
e 29 48
e 29 49
e 29 52
e 30 35
e 30 37
e 30 39
e 30 41
e 30 51
e 30 55
e 30 58
e 30 60
e 31 34
e 31 36
e 31 45
e 31 53
e 31 55
e 32 38
e 32 40
e 32 42
e 32 43
e 32 46
e 32 47
e 32 48
e 32 49
e 32 54
e 32 56
e 32 59
e 33 38
e 33 42
e 33 48
e 33 49
e 33 52
e 33 54
e 33 57
e 33 59
e 34 38
e 34 44
e 34 46
e 34 48
e 34 52
e 34 54
e 34 56
e 34 57
e 34 59
e 35 38
e 35 40
e 35 42
e 35 44
e 35 47
e 35 49
e 35 52
e 35 54
e 35 59
e 36 38
e 36 44
e 36 46
e 36 47
e 36 56
e 36 59
e 37 38
e 37 44
e 37 47
e 37 49
e 37 50
e 37 52
e 37 54
e 37 56
e 37 59
e 38 45
e 38 53
e 38 60
e 39 42
e 39 43
e 39 46
e 39 49
e 39 50
e 39 54
e 39 56
e 39 57
e 40 41
e 40 58
e 41 44
e 41 46
e 41 48
e 41 49
e 41 50
e 41 52
e 41 56
e 41 59
e 42 53
e 42 55
e 42 58
e 42 60
e 43 45
e 43 53
e 43 55
e 43 60
e 44 45
e 44 51
e 44 55
e 44 58
e 45 47
e 45 50
e 45 56
e 45 57
e 45 59
e 46 58
e 46 60
e 47 51
e 47 53
e 47 55
e 47 60
e 48 53
e 48 60
e 49 51
e 49 53
e 49 60
e 50 51
e 50 53
e 50 55
e 50 58
e 50 60
e 51 52
e 51 54
e 51 56
e 51 57
e 51 59
e 52 55
e 52 58
e 53 54
e 53 56
e 53 57
e 53 59
e 54 58
e 54 60
e 55 57
e 55 59
e 57 58
e 57 60
e 58 59
e 59 60
